5 5
8 2 4 16 3 9 4 3 18 4 16 5 19 1 19 2 5 20 2 12 3 5 16 1 3 3 17 3 2 3 1 9 5 3 2 2 15 4 3 5 2 20 1 18 4 3 5 9 3 13 3 4 3 3 7 5 2
6 4 5 19 4 15 1 7 3 17 5 2 9 5 2 4 8 1 16 3 13 3 2 19 4 15 1 2 1 4 14 1 1 14 1 3 17
8 2 4 18 3 13 2 2 14 3 19 2 1 16 4 9 5 2 6 1 12 3 3 4 11 5 6 3 2 11 3 10 4 4 2 2 20 4 7 3 1 7 5 17 4 4 2 4 3 5 4
6 1 4 12 1 5 20 1 2 15 1 3 5 2 1 5 4 20 3 2 18 5 2 3 11
8 5 3 19 1 9 5 18 4 2 2 18 5 1 3 4 5 2 18 3 8 5 17 1 2 5 1 5 19 2 4 2 1 13 5 2 11 4 6 1 12 5 20 3 16 2 1 9 2 12 3 2 13 5 18 4 20